50 1 3
569 242 632 996 974 171 218 217 332 624 321 926 276 389 845 848 840 501 744 891 513 493 625 188 328 236 331 792 526 827 404 94 68 36 89 42 206 306 259 537 930 579 463 205 968 308 53 808 809 796 
698 321 289 323 508 616 558 839 408 83 666 811 177 734 847 266 776 52 572 34 589 501 613 51 705 581 359 757 388 167 553 85 487 841 407 995 457 965 834 864 48 500 675 225 233 521 490 9 573 61 
43 162 561 655 213 266 236 571 23 623 737 575 708 224 416 115 219 872 79 52 736 127 552 411 351 785 932 841 793 505 901 835 666 462 490 878 727 725 448 750 348 185 324 55 409 739 169 627 611 248 
6790 3470 3750 2300 7570 7250 150 6890 5660 8070 1930 4660 6420 8580 9280 1320 7360 6550 8560 1840 4040 2040 3690 7270 2580 7770 4660 4270 4040 770 6740 830 4230 480 3130 1800 7730 3270 8680 3380 1330 610 8040 7750 9190 7310 9060 6540 3850 7620 
125550
